Route 1: 4 90 72 82 87 137 105 64 29 104 22 139 123 77
Route 2: 17 33 88 30 58 9 16 52 40 68 85 31 8 92
Route 3: 11 71 63 5 24 10 138 115 25 86 119 127 53 96
Route 4: 126 26 113 23 27 109 95 70 39 132 35 116 28 124
Route 5: 37 50 130 54 6 7 97 114 91 13 67 20 62 49
Route 6: 99 57 55 80 122 21 74 111 46 110 89 125
Route 7: 81 42 93 108 133 94 131 128 65 83 107 78 44 47 56
Route 8: 101 34 136 15 135 43 60 61 66 45 73 118 3 100
Route 9: 112 106 76 134 79 36 59 14 98 32 51 75 121
Route 10: 19 2 84 69 117 102 129 120 48 12 18 38 41 103
Cost 15523.78
